NAME: tsp25_14
COMMENT: 25-tsp problem (Padberg/Rinaldi)
TYPE: TSP
DIMENSION: 25
EDGE_WEIGHT_TYPE : EUC_2D
NODE_COORD_SECTION
1 20 35
2 36 25
3 35 4
4 32 10
5 37 8
6 27 7
7 3 31
8 34 18
9 29 21
10 35 23
11 6 26
12 24 6
13 31 30
14 9 16
15 38 22
16 28 0
17 30 39
18 38 23
19 37 39
20 9 29
21 1 29
22 38 28
23 40 27
24 38 14
25 22 2
